50

97 21 292
97 26 291
90 8 270
89 7 298
89 9 293
89 27 300
85 8 272
83 4 265
82 25 292
81 18 289
77 0 235
76 11 238
76 22 283
75 12 265
71 15 223
71 16 261
68 10 256
68 10 269
66 13 268
63 9 269
63 17 220
63 9 226
62 16 289
61 15 296
61 6 272
59 15 289
58 9 217
54 0 285
53 11 265
50 0 243
50 6 289
50 6 283
46 10 287
43 12 241
40 12 247
36 3 200
36 11 134
33 0 286
32 1 298
31 7 209
31 3 148
31 10 169
28 7 207
27 8 267
27 9 131
26 2 81
26 2 185
24 5 246
23 1 256
22 0 212
